************************************************************************
file with basedata            : md374_.bas
initial value random generator: 1666639687
************************************************************************
projects                      :  1
jobs (incl. supersource/sink ):  22
horizon                       :  171
RESOURCES
  - renewable                 :  2   R
  - nonrenewable              :  2   N
  - doubly constrained        :  0   D
************************************************************************
PROJECT INFORMATION:
pronr.  #jobs rel.date duedate tardcost  MPM-Time
    1     20      0       28       13       28
************************************************************************
PRECEDENCE RELATIONS:
jobnr.    #modes  #successors   successors
   1        1          3           2   3   4
   2        3          3           6   9  12
   3        3          3           5   7  11
   4        3          2           9  16
   5        3          2          10  16
   6        3          3           8  15  18
   7        3          2          12  13
   8        3          1          10
   9        3          2          15  18
  10        3          3          13  17  21
  11        3          2          14  18
  12        3          2          14  17
  13        3          1          20
  14        3          1          21
  15        3          2          17  21
  16        3          2          19  20
  17        3          1          19
  18        3          2          19  20
  19        3          1          22
  20        3          1          22
  21        3          1          22
  22        1          0        
************************************************************************
REQUESTS/DURATIONS:
jobnr. mode duration  R 1  R 2  N 1  N 2
------------------------------------------------------------------------
  1      1     0       0    0    0    0
  2      1     3       7    7    7    6
         2     3       5    7    7    7
         3     6       4    6    7    5
  3      1     4       2   10    9    7
         2     5       2   10    8    5
         3     8       1    9    5    3
  4      1     5       6    3    9    6
         2     5       7    3   10    5
         3     7       4    3    9    4
  5      1     4       8    8    7   10
         2     8       8    7    7    5
         3     9       7    4    5    3
  6      1     4       3    6    4    7
         2     6       2    4    4    6
         3    10       2    2    4    6
  7      1     7       5    4    5    9
         2     9       5    3    2    7
         3     9       4    3    5    8
  8      1     3       3   10    3    7
         2     3       1    8    5    8
         3     3       4    9    5    7
  9      1     6       5   10    4    8
         2     8       2    9    4    6
         3    10       2    7    3    4
 10      1     5       8    6    6    9
         2     9       7    5    4    6
         3    10       6    4    1    4
 11      1     1       6    9    6    3
         2     3       6    8    4    3
         3     6       6    8    1    3
 12      1     6       3    8    5    4
         2     7       3    6    5    3
         3     9       3    1    5    2
 13      1     3       5    9    8    9
         2     3       9    8    8    8
         3     8       1    6    6    6
 14      1     4       7    6    5    6
         2     5       6    5    4    6
         3    10       6    1    2    6
 15      1     4       5    7    5    8
         2     7       4    6    5    6
         3    10       1    6    2    6
 16      1     3       7    5    4    9
         2     7       6    5    4    8
         3     8       3    5    2    7
 17      1     6       6   10    9    5
         2     7       6   10    5    5
         3    10       5   10    4    4
 18      1     4       8    9    9    7
         2     5       8    9    7    5
         3    10       5    9    4    4
 19      1     4      10    7    2    7
         2     8      10    6    2    5
         3    10      10    6    2    4
 20      1     2       4    5    8   10
         2     4       3    4    8    8
         3     8       3    4    7    8
 21      1     7       8    6    6    3
         2    10       6    5    5    3
         3    10       7    3    5    2
 22      1     0       0    0    0    0
************************************************************************
RESOURCEAVAILABILITIES:
  R 1  R 2  N 1  N 2
   20   21  113  130
************************************************************************
MAXIMAL LAGS:
from  to  type  delay
    1   22   ES      0
    1    2   ES      0
    2   22   ES      0
    1    3   ES      0
    3   22   ES      0
    1    4   ES      0
    4   22   ES      0
    1    5   ES      0
    5   22   ES      0
    1    6   ES      0
    6   22   ES      0
    1    7   ES      0
    7   22   ES      0
    1    8   ES      0
    8   22   ES      0
    1    9   ES      0
    9   22   ES      0
    1   10   ES      0
   10   22   ES      0
    1   11   ES      0
   11   22   ES      0
    1   12   ES      0
   12   22   ES      0
    1   13   ES      0
   13   22   ES      0
    1   14   ES      0
   14   22   ES      0
    1   15   ES      0
   15   22   ES      0
    1   16   ES      0
   16   22   ES      0
    1   17   ES      0
   17   22   ES      0
    1   18   ES      0
   18   22   ES      0
    1   19   ES      0
   19   22   ES      0
    1   20   ES      0
   20   22   ES      0
    1   21   ES      0
   21   22   ES      0
    1   22   ES      0
    2    6   SS     12
    2    6   SE      9
    2    6   ES    -11
    2    6   EE     -7
    2    9   SS     -4
    2    9   SE      0
    2    9   ES      6
    2    9   EE     -4
    2   12   SS      4
    2   12   SE     12
    2   12   ES     -3
    2   12   EE     10
    3    5   SS     11
    3    5   SE     -9
    3    5   ES     -7
    3    5   EE     -6
    3    7   SS     -8
    3    7   SE     11
    3    7   ES     -8
    3    7   EE     -7
    3   11   SS     -5
    3   11   SE     -7
    3   11   ES    -11
    3   11   EE      5
    4    9   SS      3
    4    9   SE     -5
    4    9   ES      4
    4    9   EE     12
    4   16   SS     -2
    4   16   SE     10
    4   16   ES      3
    4   16   EE    -11
    5   10   SS     12
    5   10   SE     12
    5   10   ES     12
    5   10   EE     11
    5   16   SS      6
    5   16   SE     -3
    5   16   ES     -6
    5   16   EE      6
    6    8   SS     -9
    6    8   SE     -5
    6    8   ES      3
    6    8   EE    -12
    6   15   SS      4
    6   15   SE     -1
    6   15   ES      5
    6   15   EE      2
    6   18   SS      4
    6   18   SE     -6
    6   18   ES      3
    6   18   EE      7
    7   12   SS     -7
    7   12   SE     -9
    7   12   ES     -5
    7   12   EE     -9
    7   13   SS      1
    7   13   SE     11
    7   13   ES      5
    7   13   EE     -7
    8   10   SS     -8
    8   10   SE      0
    8   10   ES      8
    8   10   EE    -11
    9   15   SS      4
    9   15   SE    -12
    9   15   ES      7
    9   15   EE      7
    9   18   SS     -6
    9   18   SE      2
    9   18   ES    -10
    9   18   EE     -1
   10   13   SS     -9
   10   13   SE      7
   10   13   ES     -5
   10   13   EE    -10
   10   17   SS      2
   10   17   SE      5
   10   17   ES     -3
   10   17   EE     -4
   10   21   SS     10
   10   21   SE      7
   10   21   ES      5
   10   21   EE      5
   11   14   SS     12
   11   14   SE     -5
   11   14   ES      5
   11   14   EE    -12
   11   18   SS     -6
   11   18   SE      2
   11   18   ES      8
   11   18   EE     -4
   12   14   SS      8
   12   14   SE      2
   12   14   ES     11
   12   14   EE     -5
   12   17   SS      5
   12   17   SE     -9
   12   17   ES     -9
   12   17   EE     -5
   13   20   SS     -6
   13   20   SE      2
   13   20   ES    -11
   13   20   EE      9
   14   21   SS     -4
   14   21   SE      6
   14   21   ES     -4
   14   21   EE      0
   15   17   SS     -7
   15   17   SE     -3
   15   17   ES     -1
   15   17   EE     -2
   15   21   SS     -3
   15   21   SE    -12
   15   21   ES      2
   15   21   EE      3
   16   19   SS    -12
   16   19   SE    -12
   16   19   ES     -2
   16   19   EE     -5
   16   20   SS     -1
   16   20   SE     -2
   16   20   ES      8
   16   20   EE      4
   17   19   SS      4
   17   19   SE     -8
   17   19   ES     -6
   17   19   EE     -4
   18   19   SS      5
   18   19   SE     11
   18   19   ES     -9
   18   19   EE      9
   18   20   SS     -9
   18   20   SE     12
   18   20   ES      4
   18   20   EE    -12
************************************************************************
